c Generated with `cnfgen`
c (C) 2012-2019 Massimo Lauria <massimo.lauria@uniroma1.it>
c https://massimolauria.net/cnfgen
c
c COMMAND LINE: cnfgen --seed 1 -o ./tseitin/tseitin.gnm130-200.s1.cnf tseitin --gnm 130 200 --savegraph ./tseitin/tseitin.gnm130-200.s1.graph --graphformat dot --charge randomeven
c
p cnf 200 1309
1 2 3 4 5 6 7 0
1 2 3 4 5 -6 -7 0
1 2 3 4 -5 6 -7 0
1 2 3 4 -5 -6 7 0
1 2 3 -4 5 6 -7 0
1 2 3 -4 5 -6 7 0
1 2 3 -4 -5 6 7 0
1 2 3 -4 -5 -6 -7 0
1 2 -3 4 5 6 -7 0
1 2 -3 4 5 -6 7 0
1 2 -3 4 -5 6 7 0
1 2 -3 4 -5 -6 -7 0
1 2 -3 -4 5 6 7 0
1 2 -3 -4 5 -6 -7 0
1 2 -3 -4 -5 6 -7 0
1 2 -3 -4 -5 -6 7 0
1 -2 3 4 5 6 -7 0
1 -2 3 4 5 -6 7 0
1 -2 3 4 -5 6 7 0
1 -2 3 4 -5 -6 -7 0
1 -2 3 -4 5 6 7 0
1 -2 3 -4 5 -6 -7 0
1 -2 3 -4 -5 6 -7 0
1 -2 3 -4 -5 -6 7 0
1 -2 -3 4 5 6 7 0
1 -2 -3 4 5 -6 -7 0
1 -2 -3 4 -5 6 -7 0
1 -2 -3 4 -5 -6 7 0
1 -2 -3 -4 5 6 -7 0
1 -2 -3 -4 5 -6 7 0
1 -2 -3 -4 -5 6 7 0
1 -2 -3 -4 -5 -6 -7 0
-1 2 3 4 5 6 -7 0
-1 2 3 4 5 -6 7 0
-1 2 3 4 -5 6 7 0
-1 2 3 4 -5 -6 -7 0
-1 2 3 -4 5 6 7 0
-1 2 3 -4 5 -6 -7 0
-1 2 3 -4 -5 6 -7 0
-1 2 3 -4 -5 -6 7 0
-1 2 -3 4 5 6 7 0
-1 2 -3 4 5 -6 -7 0
-1 2 -3 4 -5 6 -7 0
-1 2 -3 4 -5 -6 7 0
-1 2 -3 -4 5 6 -7 0
-1 2 -3 -4 5 -6 7 0
-1 2 -3 -4 -5 6 7 0
-1 2 -3 -4 -5 -6 -7 0
-1 -2 3 4 5 6 7 0
-1 -2 3 4 5 -6 -7 0
-1 -2 3 4 -5 6 -7 0
-1 -2 3 4 -5 -6 7 0
-1 -2 3 -4 5 6 -7 0
-1 -2 3 -4 5 -6 7 0
-1 -2 3 -4 -5 6 7 0
-1 -2 3 -4 -5 -6 -7 0
-1 -2 -3 4 5 6 -7 0
-1 -2 -3 4 5 -6 7 0
-1 -2 -3 4 -5 6 7 0
-1 -2 -3 4 -5 -6 -7 0
-1 -2 -3 -4 5 6 7 0
-1 -2 -3 -4 5 -6 -7 0
-1 -2 -3 -4 -5 6 -7 0
-1 -2 -3 -4 -5 -6 7 0
8 9 0
-8 -9 0
10 11 12 13 -14 0
10 11 12 -13 14 0
10 11 -12 13 14 0
10 11 -12 -13 -14 0
10 -11 12 13 14 0
10 -11 12 -13 -14 0
10 -11 -12 13 -14 0
10 -11 -12 -13 14 0
-10 11 12 13 14 0
-10 11 12 -13 -14 0
-10 11 -12 13 -14 0
-10 11 -12 -13 14 0
-10 -11 12 13 -14 0
-10 -11 12 -13 14 0
-10 -11 -12 13 14 0
-10 -11 -12 -13 -14 0
15 16 17 0
15 -16 -17 0
-15 16 -17 0
-15 -16 17 0
18 0
19 20 21 22 23 24 25 26 0
19 20 21 22 23 24 -25 -26 0
19 20 21 22 23 -24 25 -26 0
19 20 21 22 23 -24 -25 26 0
19 20 21 22 -23 24 25 -26 0
19 20 21 22 -23 24 -25 26 0
19 20 21 22 -23 -24 25 26 0
19 20 21 22 -23 -24 -25 -26 0
19 20 21 -22 23 24 25 -26 0
19 20 21 -22 23 24 -25 26 0
19 20 21 -22 23 -24 25 26 0
19 20 21 -22 23 -24 -25 -26 0
19 20 21 -22 -23 24 25 26 0
19 20 21 -22 -23 24 -25 -26 0
19 20 21 -22 -23 -24 25 -26 0
19 20 21 -22 -23 -24 -25 26 0
19 20 -21 22 23 24 25 -26 0
19 20 -21 22 23 24 -25 26 0
19 20 -21 22 23 -24 25 26 0
19 20 -21 22 23 -24 -25 -26 0
19 20 -21 22 -23 24 25 26 0
19 20 -21 22 -23 24 -25 -26 0
19 20 -21 22 -23 -24 25 -26 0
19 20 -21 22 -23 -24 -25 26 0
19 20 -21 -22 23 24 25 26 0
19 20 -21 -22 23 24 -25 -26 0
19 20 -21 -22 23 -24 25 -26 0
19 20 -21 -22 23 -24 -25 26 0
19 20 -21 -22 -23 24 25 -26 0
19 20 -21 -22 -23 24 -25 26 0
19 20 -21 -22 -23 -24 25 26 0
19 20 -21 -22 -23 -24 -25 -26 0
19 -20 21 22 23 24 25 -26 0
19 -20 21 22 23 24 -25 26 0
19 -20 21 22 23 -24 25 26 0
19 -20 21 22 23 -24 -25 -26 0
19 -20 21 22 -23 24 25 26 0
19 -20 21 22 -23 24 -25 -26 0
19 -20 21 22 -23 -24 25 -26 0
19 -20 21 22 -23 -24 -25 26 0
19 -20 21 -22 23 24 25 26 0
19 -20 21 -22 23 24 -25 -26 0
19 -20 21 -22 23 -24 25 -26 0
19 -20 21 -22 23 -24 -25 26 0
19 -20 21 -22 -23 24 25 -26 0
19 -20 21 -22 -23 24 -25 26 0
19 -20 21 -22 -23 -24 25 26 0
19 -20 21 -22 -23 -24 -25 -26 0
19 -20 -21 22 23 24 25 26 0
19 -20 -21 22 23 24 -25 -26 0
19 -20 -21 22 23 -24 25 -26 0
19 -20 -21 22 23 -24 -25 26 0
19 -20 -21 22 -23 24 25 -26 0
19 -20 -21 22 -23 24 -25 26 0
19 -20 -21 22 -23 -24 25 26 0
19 -20 -21 22 -23 -24 -25 -26 0
19 -20 -21 -22 23 24 25 -26 0
19 -20 -21 -22 23 24 -25 26 0
19 -20 -21 -22 23 -24 25 26 0
19 -20 -21 -22 23 -24 -25 -26 0
19 -20 -21 -22 -23 24 25 26 0
19 -20 -21 -22 -23 24 -25 -26 0
19 -20 -21 -22 -23 -24 25 -26 0
19 -20 -21 -22 -23 -24 -25 26 0
-19 20 21 22 23 24 25 -26 0
-19 20 21 22 23 24 -25 26 0
-19 20 21 22 23 -24 25 26 0
-19 20 21 22 23 -24 -25 -26 0
-19 20 21 22 -23 24 25 26 0
-19 20 21 22 -23 24 -25 -26 0
-19 20 21 22 -23 -24 25 -26 0
-19 20 21 22 -23 -24 -25 26 0
-19 20 21 -22 23 24 25 26 0
-19 20 21 -22 23 24 -25 -26 0
-19 20 21 -22 23 -24 25 -26 0
-19 20 21 -22 23 -24 -25 26 0
-19 20 21 -22 -23 24 25 -26 0
-19 20 21 -22 -23 24 -25 26 0
-19 20 21 -22 -23 -24 25 26 0
-19 20 21 -22 -23 -24 -25 -26 0
-19 20 -21 22 23 24 25 26 0
-19 20 -21 22 23 24 -25 -26 0
-19 20 -21 22 23 -24 25 -26 0
-19 20 -21 22 23 -24 -25 26 0
-19 20 -21 22 -23 24 25 -26 0
-19 20 -21 22 -23 24 -25 26 0
-19 20 -21 22 -23 -24 25 26 0
-19 20 -21 22 -23 -24 -25 -26 0
-19 20 -21 -22 23 24 25 -26 0
-19 20 -21 -22 23 24 -25 26 0
-19 20 -21 -22 23 -24 25 26 0
-19 20 -21 -22 23 -24 -25 -26 0
-19 20 -21 -22 -23 24 25 26 0
-19 20 -21 -22 -23 24 -25 -26 0
-19 20 -21 -22 -23 -24 25 -26 0
-19 20 -21 -22 -23 -24 -25 26 0
-19 -20 21 22 23 24 25 26 0
-19 -20 21 22 23 24 -25 -26 0
-19 -20 21 22 23 -24 25 -26 0
-19 -20 21 22 23 -24 -25 26 0
-19 -20 21 22 -23 24 25 -26 0
-19 -20 21 22 -23 24 -25 26 0
-19 -20 21 22 -23 -24 25 26 0
-19 -20 21 22 -23 -24 -25 -26 0
-19 -20 21 -22 23 24 25 -26 0
-19 -20 21 -22 23 24 -25 26 0
-19 -20 21 -22 23 -24 25 26 0
-19 -20 21 -22 23 -24 -25 -26 0
-19 -20 21 -22 -23 24 25 26 0
-19 -20 21 -22 -23 24 -25 -26 0
-19 -20 21 -22 -23 -24 25 -26 0
-19 -20 21 -22 -23 -24 -25 26 0
-19 -20 -21 22 23 24 25 -26 0
-19 -20 -21 22 23 24 -25 26 0
-19 -20 -21 22 23 -24 25 26 0
-19 -20 -21 22 23 -24 -25 -26 0
-19 -20 -21 22 -23 24 25 26 0
-19 -20 -21 22 -23 24 -25 -26 0
-19 -20 -21 22 -23 -24 25 -26 0
-19 -20 -21 22 -23 -24 -25 26 0
-19 -20 -21 -22 23 24 25 26 0
-19 -20 -21 -22 23 24 -25 -26 0
-19 -20 -21 -22 23 -24 25 -26 0
-19 -20 -21 -22 23 -24 -25 26 0
-19 -20 -21 -22 -23 24 25 -26 0
-19 -20 -21 -22 -23 24 -25 26 0
-19 -20 -21 -22 -23 -24 25 26 0
-19 -20 -21 -22 -23 -24 -25 -26 0
10 27 -28 0
10 -27 28 0
-10 27 28 0
-10 -27 -28 0
1 29 30 0
1 -29 -30 0
-1 29 -30 0
-1 -29 30 0
31 32 33 -34 0
31 32 -33 34 0
31 -32 33 34 0
31 -32 -33 -34 0
-31 32 33 34 0
-31 32 -33 -34 0
-31 -32 33 -34 0
-31 -32 -33 34 0
35 36 37 38 39 40 0
35 36 37 38 -39 -40 0
35 36 37 -38 39 -40 0
35 36 37 -38 -39 40 0
35 36 -37 38 39 -40 0
35 36 -37 38 -39 40 0
35 36 -37 -38 39 40 0
35 36 -37 -38 -39 -40 0
35 -36 37 38 39 -40 0
35 -36 37 38 -39 40 0
35 -36 37 -38 39 40 0
35 -36 37 -38 -39 -40 0
35 -36 -37 38 39 40 0
35 -36 -37 38 -39 -40 0
35 -36 -37 -38 39 -40 0
35 -36 -37 -38 -39 40 0
-35 36 37 38 39 -40 0
-35 36 37 38 -39 40 0
-35 36 37 -38 39 40 0
-35 36 37 -38 -39 -40 0
-35 36 -37 38 39 40 0
-35 36 -37 38 -39 -40 0
-35 36 -37 -38 39 -40 0
-35 36 -37 -38 -39 40 0
-35 -36 37 38 39 40 0
-35 -36 37 38 -39 -40 0
-35 -36 37 -38 39 -40 0
-35 -36 37 -38 -39 40 0
-35 -36 -37 38 39 -40 0
-35 -36 -37 38 -39 40 0
-35 -36 -37 -38 39 40 0
-35 -36 -37 -38 -39 -40 0
41 42 43 44 45 46 0
41 42 43 44 -45 -46 0
41 42 43 -44 45 -46 0
41 42 43 -44 -45 46 0
41 42 -43 44 45 -46 0
41 42 -43 44 -45 46 0
41 42 -43 -44 45 46 0
41 42 -43 -44 -45 -46 0
41 -42 43 44 45 -46 0
41 -42 43 44 -45 46 0
41 -42 43 -44 45 46 0
41 -42 43 -44 -45 -46 0
41 -42 -43 44 45 46 0
41 -42 -43 44 -45 -46 0
41 -42 -43 -44 45 -46 0
41 -42 -43 -44 -45 46 0
-41 42 43 44 45 -46 0
-41 42 43 44 -45 46 0
-41 42 43 -44 45 46 0
-41 42 43 -44 -45 -46 0
-41 42 -43 44 45 46 0
-41 42 -43 44 -45 -46 0
-41 42 -43 -44 45 -46 0
-41 42 -43 -44 -45 46 0
-41 -42 43 44 45 46 0
-41 -42 43 44 -45 -46 0
-41 -42 43 -44 45 -46 0
-41 -42 43 -44 -45 46 0
-41 -42 -43 44 45 -46 0
-41 -42 -43 44 -45 46 0
-41 -42 -43 -44 45 46 0
-41 -42 -43 -44 -45 -46 0
47 -48 0
-47 48 0
49 50 0
-49 -50 0
51 0
52 53 54 55 0
52 53 -54 -55 0
52 -53 54 -55 0
52 -53 -54 55 0
-52 53 54 -55 0
-52 53 -54 55 0
-52 -53 54 55 0
-52 -53 -54 -55 0
56 57 -58 0
56 -57 58 0
-56 57 58 0
-56 -57 -58 0
59 60 0
-59 -60 0
49 -61 0
-49 61 0
62 63 64 0
62 -63 -64 0
-62 63 -64 0
-62 -63 64 0
41 65 66 -67 0
41 65 -66 67 0
41 -65 66 67 0
41 -65 -66 -67 0
-41 65 66 67 0
-41 65 -66 -67 0
-41 -65 66 -67 0
-41 -65 -66 67 0
42 52 68 69 70 71 -72 0
42 52 68 69 70 -71 72 0
42 52 68 69 -70 71 72 0
42 52 68 69 -70 -71 -72 0
42 52 68 -69 70 71 72 0
42 52 68 -69 70 -71 -72 0
42 52 68 -69 -70 71 -72 0
42 52 68 -69 -70 -71 72 0
42 52 -68 69 70 71 72 0
42 52 -68 69 70 -71 -72 0
42 52 -68 69 -70 71 -72 0
42 52 -68 69 -70 -71 72 0
42 52 -68 -69 70 71 -72 0
42 52 -68 -69 70 -71 72 0
42 52 -68 -69 -70 71 72 0
42 52 -68 -69 -70 -71 -72 0
42 -52 68 69 70 71 72 0
42 -52 68 69 70 -71 -72 0
42 -52 68 69 -70 71 -72 0
42 -52 68 69 -70 -71 72 0
42 -52 68 -69 70 71 -72 0
42 -52 68 -69 70 -71 72 0
42 -52 68 -69 -70 71 72 0
42 -52 68 -69 -70 -71 -72 0
42 -52 -68 69 70 71 -72 0
42 -52 -68 69 70 -71 72 0
42 -52 -68 69 -70 71 72 0
42 -52 -68 69 -70 -71 -72 0
42 -52 -68 -69 70 71 72 0
42 -52 -68 -69 70 -71 -72 0
42 -52 -68 -69 -70 71 -72 0
42 -52 -68 -69 -70 -71 72 0
-42 52 68 69 70 71 72 0
-42 52 68 69 70 -71 -72 0
-42 52 68 69 -70 71 -72 0
-42 52 68 69 -70 -71 72 0
-42 52 68 -69 70 71 -72 0
-42 52 68 -69 70 -71 72 0
-42 52 68 -69 -70 71 72 0
-42 52 68 -69 -70 -71 -72 0
-42 52 -68 69 70 71 -72 0
-42 52 -68 69 70 -71 72 0
-42 52 -68 69 -70 71 72 0
-42 52 -68 69 -70 -71 -72 0
-42 52 -68 -69 70 71 72 0
-42 52 -68 -69 70 -71 -72 0
-42 52 -68 -69 -70 71 -72 0
-42 52 -68 -69 -70 -71 72 0
-42 -52 68 69 70 71 -72 0
-42 -52 68 69 70 -71 72 0
-42 -52 68 69 -70 71 72 0
-42 -52 68 69 -70 -71 -72 0
-42 -52 68 -69 70 71 72 0
-42 -52 68 -69 70 -71 -72 0
-42 -52 68 -69 -70 71 -72 0
-42 -52 68 -69 -70 -71 72 0
-42 -52 -68 69 70 71 72 0
-42 -52 -68 69 70 -71 -72 0
-42 -52 -68 69 -70 71 -72 0
-42 -52 -68 69 -70 -71 72 0
-42 -52 -68 -69 70 71 -72 0
-42 -52 -68 -69 70 -71 72 0
-42 -52 -68 -69 -70 71 72 0
-42 -52 -68 -69 -70 -71 -72 0
-73 0
29 74 75 0
29 -74 -75 0
-29 74 -75 0
-29 -74 75 0
76 77 0
-76 -77 0
2 -78 0
-2 78 0
79 80 81 0
79 -80 -81 0
-79 80 -81 0
-79 -80 81 0
82 -83 0
-82 83 0
76 84 85 -86 0
76 84 -85 86 0
76 -84 85 86 0
76 -84 -85 -86 0
-76 84 85 86 0
-76 84 -85 -86 0
-76 -84 85 -86 0
-76 -84 -85 86 0
43 87 -88 0
43 -87 88 0
-43 87 88 0
-43 -87 -88 0
89 90 0
-89 -90 0
68 91 92 0
68 -91 -92 0
-68 91 -92 0
-68 -91 92 0
3 -51 0
-3 51 0
93 0
84 94 95 -96 0
84 94 -95 96 0
84 -94 95 96 0
84 -94 -95 -96 0
-84 94 95 96 0
-84 94 -95 -96 0
-84 -94 95 -96 0
-84 -94 -95 96 0
79 -97 0
-79 97 0
4 69 73 98 99 100 101 102 0
4 69 73 98 99 100 -101 -102 0
4 69 73 98 99 -100 101 -102 0
4 69 73 98 99 -100 -101 102 0
4 69 73 98 -99 100 101 -102 0
4 69 73 98 -99 100 -101 102 0
4 69 73 98 -99 -100 101 102 0
4 69 73 98 -99 -100 -101 -102 0
4 69 73 -98 99 100 101 -102 0
4 69 73 -98 99 100 -101 102 0
4 69 73 -98 99 -100 101 102 0
4 69 73 -98 99 -100 -101 -102 0
4 69 73 -98 -99 100 101 102 0
4 69 73 -98 -99 100 -101 -102 0
4 69 73 -98 -99 -100 101 -102 0
4 69 73 -98 -99 -100 -101 102 0
4 69 -73 98 99 100 101 -102 0
4 69 -73 98 99 100 -101 102 0
4 69 -73 98 99 -100 101 102 0
4 69 -73 98 99 -100 -101 -102 0
4 69 -73 98 -99 100 101 102 0
4 69 -73 98 -99 100 -101 -102 0
4 69 -73 98 -99 -100 101 -102 0
4 69 -73 98 -99 -100 -101 102 0
4 69 -73 -98 99 100 101 102 0
4 69 -73 -98 99 100 -101 -102 0
4 69 -73 -98 99 -100 101 -102 0
4 69 -73 -98 99 -100 -101 102 0
4 69 -73 -98 -99 100 101 -102 0
4 69 -73 -98 -99 100 -101 102 0
4 69 -73 -98 -99 -100 101 102 0
4 69 -73 -98 -99 -100 -101 -102 0
4 -69 73 98 99 100 101 -102 0
4 -69 73 98 99 100 -101 102 0
4 -69 73 98 99 -100 101 102 0
4 -69 73 98 99 -100 -101 -102 0
4 -69 73 98 -99 100 101 102 0
4 -69 73 98 -99 100 -101 -102 0
4 -69 73 98 -99 -100 101 -102 0
4 -69 73 98 -99 -100 -101 102 0
4 -69 73 -98 99 100 101 102 0
4 -69 73 -98 99 100 -101 -102 0
4 -69 73 -98 99 -100 101 -102 0
4 -69 73 -98 99 -100 -101 102 0
4 -69 73 -98 -99 100 101 -102 0
4 -69 73 -98 -99 100 -101 102 0
4 -69 73 -98 -99 -100 101 102 0
4 -69 73 -98 -99 -100 -101 -102 0
4 -69 -73 98 99 100 101 102 0
4 -69 -73 98 99 100 -101 -102 0
4 -69 -73 98 99 -100 101 -102 0
4 -69 -73 98 99 -100 -101 102 0
4 -69 -73 98 -99 100 101 -102 0
4 -69 -73 98 -99 100 -101 102 0
4 -69 -73 98 -99 -100 101 102 0
4 -69 -73 98 -99 -100 -101 -102 0
4 -69 -73 -98 99 100 101 -102 0
4 -69 -73 -98 99 100 -101 102 0
4 -69 -73 -98 99 -100 101 102 0
4 -69 -73 -98 99 -100 -101 -102 0
4 -69 -73 -98 -99 100 101 102 0
4 -69 -73 -98 -99 100 -101 -102 0
4 -69 -73 -98 -99 -100 101 -102 0
4 -69 -73 -98 -99 -100 -101 102 0
-4 69 73 98 99 100 101 -102 0
-4 69 73 98 99 100 -101 102 0
-4 69 73 98 99 -100 101 102 0
-4 69 73 98 99 -100 -101 -102 0
-4 69 73 98 -99 100 101 102 0
-4 69 73 98 -99 100 -101 -102 0
-4 69 73 98 -99 -100 101 -102 0
-4 69 73 98 -99 -100 -101 102 0
-4 69 73 -98 99 100 101 102 0
-4 69 73 -98 99 100 -101 -102 0
-4 69 73 -98 99 -100 101 -102 0
-4 69 73 -98 99 -100 -101 102 0
-4 69 73 -98 -99 100 101 -102 0
-4 69 73 -98 -99 100 -101 102 0
-4 69 73 -98 -99 -100 101 102 0
-4 69 73 -98 -99 -100 -101 -102 0
-4 69 -73 98 99 100 101 102 0
-4 69 -73 98 99 100 -101 -102 0
-4 69 -73 98 99 -100 101 -102 0
-4 69 -73 98 99 -100 -101 102 0
-4 69 -73 98 -99 100 101 -102 0
-4 69 -73 98 -99 100 -101 102 0
-4 69 -73 98 -99 -100 101 102 0
-4 69 -73 98 -99 -100 -101 -102 0
-4 69 -73 -98 99 100 101 -102 0
-4 69 -73 -98 99 100 -101 102 0
-4 69 -73 -98 99 -100 101 102 0
-4 69 -73 -98 99 -100 -101 -102 0
-4 69 -73 -98 -99 100 101 102 0
-4 69 -73 -98 -99 100 -101 -102 0
-4 69 -73 -98 -99 -100 101 -102 0
-4 69 -73 -98 -99 -100 -101 102 0
-4 -69 73 98 99 100 101 102 0
-4 -69 73 98 99 100 -101 -102 0
-4 -69 73 98 99 -100 101 -102 0
-4 -69 73 98 99 -100 -101 102 0
-4 -69 73 98 -99 100 101 -102 0
-4 -69 73 98 -99 100 -101 102 0
-4 -69 73 98 -99 -100 101 102 0
-4 -69 73 98 -99 -100 -101 -102 0
-4 -69 73 -98 99 100 101 -102 0
-4 -69 73 -98 99 100 -101 102 0
-4 -69 73 -98 99 -100 101 102 0
-4 -69 73 -98 99 -100 -101 -102 0
-4 -69 73 -98 -99 100 101 102 0
-4 -69 73 -98 -99 100 -101 -102 0
-4 -69 73 -98 -99 -100 101 -102 0
-4 -69 73 -98 -99 -100 -101 102 0
-4 -69 -73 98 99 100 101 -102 0
-4 -69 -73 98 99 100 -101 102 0
-4 -69 -73 98 99 -100 101 102 0
-4 -69 -73 98 99 -100 -101 -102 0
-4 -69 -73 98 -99 100 101 102 0
-4 -69 -73 98 -99 100 -101 -102 0
-4 -69 -73 98 -99 -100 101 -102 0
-4 -69 -73 98 -99 -100 -101 102 0
-4 -69 -73 -98 99 100 101 102 0
-4 -69 -73 -98 99 100 -101 -102 0
-4 -69 -73 -98 99 -100 101 -102 0
-4 -69 -73 -98 99 -100 -101 102 0
-4 -69 -73 -98 -99 100 101 -102 0
-4 -69 -73 -98 -99 100 -101 102 0
-4 -69 -73 -98 -99 -100 101 102 0
-4 -69 -73 -98 -99 -100 -101 -102 0
53 103 0
-53 -103 0
47 104 105 -106 0
47 104 -105 106 0
47 -104 105 106 0
47 -104 -105 -106 0
-47 104 105 106 0
-47 104 -105 -106 0
-47 -104 105 -106 0
-47 -104 -105 106 0
93 107 -108 0
93 -107 108 0
-93 107 108 0
-93 -107 -108 0
31 109 -110 0
31 -109 110 0
-31 109 110 0
-31 -109 -110 0
111 112 0
-111 -112 0
109 -113 0
-109 113 0
114 115 116 -117 0
114 115 -116 117 0
114 -115 116 117 0
114 -115 -116 -117 0
-114 115 116 117 0
-114 115 -116 -117 0
-114 -115 116 -117 0
-114 -115 -116 117 0
118 119 120 -121 0
118 119 -120 121 0
118 -119 120 121 0
118 -119 -120 -121 0
-118 119 120 121 0
-118 119 -120 -121 0
-118 -119 120 -121 0
-118 -119 -120 121 0
62 122 0
-62 -122 0
123 0
27 65 124 0
27 -65 -124 0
-27 65 -124 0
-27 -65 124 0
94 125 0
-94 -125 0
122 126 127 128 -129 0
122 126 127 -128 129 0
122 126 -127 128 129 0
122 126 -127 -128 -129 0
122 -126 127 128 129 0
122 -126 127 -128 -129 0
122 -126 -127 128 -129 0
122 -126 -127 -128 129 0
-122 126 127 128 129 0
-122 126 127 -128 -129 0
-122 126 -127 128 -129 0
-122 126 -127 -128 129 0
-122 -126 127 128 -129 0
-122 -126 127 -128 129 0
-122 -126 -127 128 129 0
-122 -126 -127 -128 -129 0
19 56 130 131 0
19 56 -130 -131 0
19 -56 130 -131 0
19 -56 -130 131 0
-19 56 130 -131 0
-19 56 -130 131 0
-19 -56 130 131 0
-19 -56 -130 -131 0
15 -132 0
-15 132 0
20 91 133 134 135 -136 0
20 91 133 134 -135 136 0
20 91 133 -134 135 136 0
20 91 133 -134 -135 -136 0
20 91 -133 134 135 136 0
20 91 -133 134 -135 -136 0
20 91 -133 -134 135 -136 0
20 91 -133 -134 -135 136 0
20 -91 133 134 135 136 0
20 -91 133 134 -135 -136 0
20 -91 133 -134 135 -136 0
20 -91 133 -134 -135 136 0
20 -91 -133 134 135 -136 0
20 -91 -133 134 -135 136 0
20 -91 -133 -134 135 136 0
20 -91 -133 -134 -135 -136 0
-20 91 133 134 135 136 0
-20 91 133 134 -135 -136 0
-20 91 133 -134 135 -136 0
-20 91 133 -134 -135 136 0
-20 91 -133 134 135 -136 0
-20 91 -133 134 -135 136 0
-20 91 -133 -134 135 136 0
-20 91 -133 -134 -135 -136 0
-20 -91 133 134 135 -136 0
-20 -91 133 134 -135 136 0
-20 -91 133 -134 135 136 0
-20 -91 133 -134 -135 -136 0
-20 -91 -133 134 135 136 0
-20 -91 -133 134 -135 -136 0
-20 -91 -133 -134 135 -136 0
-20 -91 -133 -134 -135 136 0
21 -82 0
-21 82 0
54 57 126 0
54 -57 -126 0
-54 57 -126 0
-54 -57 126 0
103 137 138 -139 0
103 137 -138 139 0
103 -137 138 139 0
103 -137 -138 -139 0
-103 137 138 139 0
-103 137 -138 -139 0
-103 -137 138 -139 0
-103 -137 -138 139 0
140 141 142 0
140 -141 -142 0
-140 141 -142 0
-140 -141 142 0
143 0
35 98 144 145 -146 0
35 98 144 -145 146 0
35 98 -144 145 146 0
35 98 -144 -145 -146 0
35 -98 144 145 146 0
35 -98 144 -145 -146 0
35 -98 -144 145 -146 0
35 -98 -144 -145 146 0
-35 98 144 145 146 0
-35 98 144 -145 -146 0
-35 98 -144 145 -146 0
-35 98 -144 -145 146 0
-35 -98 144 145 -146 0
-35 -98 144 -145 146 0
-35 -98 -144 145 146 0
-35 -98 -144 -145 -146 0
-147 0
36 104 118 148 149 0
36 104 118 -148 -149 0
36 104 -118 148 -149 0
36 104 -118 -148 149 0
36 -104 118 148 -149 0
36 -104 118 -148 149 0
36 -104 -118 148 149 0
36 -104 -118 -148 -149 0
-36 104 118 148 -149 0
-36 104 118 -148 149 0
-36 104 -118 148 149 0
-36 104 -118 -148 -149 0
-36 -104 118 148 149 0
-36 -104 118 -148 -149 0
-36 -104 -118 148 -149 0
-36 -104 -118 -148 149 0
55 70 150 151 0
55 70 -150 -151 0
55 -70 150 -151 0
55 -70 -150 151 0
-55 70 150 -151 0
-55 70 -150 151 0
-55 -70 150 151 0
-55 -70 -150 -151 0
133 152 -153 0
133 -152 153 0
-133 152 153 0
-133 -152 -153 0
5 0
66 89 154 155 0
66 89 -154 -155 0
66 -89 154 -155 0
66 -89 -154 155 0
-66 89 154 -155 0
-66 89 -154 155 0
-66 -89 154 155 0
-66 -89 -154 -155 0
11 37 99 144 156 0
11 37 99 -144 -156 0
11 37 -99 144 -156 0
11 37 -99 -144 156 0
11 -37 99 144 -156 0
11 -37 99 -144 156 0
11 -37 -99 144 156 0
11 -37 -99 -144 -156 0
-11 37 99 144 -156 0
-11 37 99 -144 156 0
-11 37 -99 144 156 0
-11 37 -99 -144 -156 0
-11 -37 99 144 156 0
-11 -37 99 -144 -156 0
-11 -37 -99 144 -156 0
-11 -37 -99 -144 156 0
114 145 157 -158 0
114 145 -157 158 0
114 -145 157 158 0
114 -145 -157 -158 0
-114 145 157 158 0
-114 145 -157 -158 0
-114 -145 157 -158 0
-114 -145 -157 158 0
63 95 137 159 -160 0
63 95 137 -159 160 0
63 95 -137 159 160 0
63 95 -137 -159 -160 0
63 -95 137 159 160 0
63 -95 137 -159 -160 0
63 -95 -137 159 -160 0
63 -95 -137 -159 160 0
-63 95 137 159 160 0
-63 95 137 -159 -160 0
-63 95 -137 159 -160 0
-63 95 -137 -159 160 0
-63 -95 137 159 -160 0
-63 -95 137 -159 160 0
-63 -95 -137 159 160 0
-63 -95 -137 -159 -160 0
111 119 0
-111 -119 0
22 87 161 0
22 -87 -161 0
-22 87 -161 0
-22 -87 161 0
59 97 162 163 164 0
59 97 162 -163 -164 0
59 97 -162 163 -164 0
59 97 -162 -163 164 0
59 -97 162 163 -164 0
59 -97 162 -163 164 0
59 -97 -162 163 164 0
59 -97 -162 -163 -164 0
-59 97 162 163 -164 0
-59 97 162 -163 164 0
-59 97 -162 163 164 0
-59 97 -162 -163 -164 0
-59 -97 162 163 164 0
-59 -97 162 -163 -164 0
-59 -97 -162 163 -164 0
-59 -97 -162 -163 164 0
6 165 -166 0
6 -165 166 0
-6 165 166 0
-6 -165 -166 0
23 157 167 168 -169 0
23 157 167 -168 169 0
23 157 -167 168 169 0
23 157 -167 -168 -169 0
23 -157 167 168 169 0
23 -157 167 -168 -169 0
23 -157 -167 168 -169 0
23 -157 -167 -168 169 0
-23 157 167 168 169 0
-23 157 167 -168 -169 0
-23 157 -167 168 -169 0
-23 157 -167 -168 169 0
-23 -157 167 168 -169 0
-23 -157 167 -168 169 0
-23 -157 -167 168 169 0
-23 -157 -167 -168 -169 0
8 -44 0
-8 44 0
16 28 92 -170 0
16 28 -92 170 0
16 -28 92 170 0
16 -28 -92 -170 0
-16 28 92 170 0
-16 28 -92 -170 0
-16 -28 92 -170 0
-16 -28 -92 170 0
30 105 -158 0
30 -105 158 0
-30 105 158 0
-30 -105 -158 0
110 130 171 172 173 0
110 130 171 -172 -173 0
110 130 -171 172 -173 0
110 130 -171 -172 173 0
110 -130 171 172 -173 0
110 -130 171 -172 173 0
110 -130 -171 172 173 0
110 -130 -171 -172 -173 0
-110 130 171 172 -173 0
-110 130 171 -172 173 0
-110 130 -171 172 173 0
-110 130 -171 -172 -173 0
-110 -130 171 172 173 0
-110 -130 171 -172 -173 0
-110 -130 -171 172 -173 0
-110 -130 -171 -172 173 0
115 -140 0
-115 140 0
64 77 167 174 -175 0
64 77 167 -174 175 0
64 77 -167 174 175 0
64 77 -167 -174 -175 0
64 -77 167 174 175 0
64 -77 167 -174 -175 0
64 -77 -167 174 -175 0
64 -77 -167 -174 175 0
-64 77 167 174 175 0
-64 77 167 -174 -175 0
-64 77 -167 174 -175 0
-64 77 -167 -174 175 0
-64 -77 167 174 -175 0
-64 -77 167 -174 175 0
-64 -77 -167 174 175 0
-64 -77 -167 -174 -175 0
174 176 177 0
174 -176 -177 0
-174 176 -177 0
-174 -176 177 0
48 116 148 -178 0
48 116 -148 178 0
48 -116 148 178 0
48 -116 -148 -178 0
-48 116 148 178 0
-48 116 -148 -178 0
-48 -116 148 -178 0
-48 -116 -148 178 0
74 179 0
-74 -179 0
71 90 96 106 117 -127 0
71 90 96 106 -117 127 0
71 90 96 -106 117 127 0
71 90 96 -106 -117 -127 0
71 90 -96 106 117 127 0
71 90 -96 106 -117 -127 0
71 90 -96 -106 117 -127 0
71 90 -96 -106 -117 127 0
71 -90 96 106 117 127 0
71 -90 96 106 -117 -127 0
71 -90 96 -106 117 -127 0
71 -90 96 -106 -117 127 0
71 -90 -96 106 117 -127 0
71 -90 -96 106 -117 127 0
71 -90 -96 -106 117 127 0
71 -90 -96 -106 -117 -127 0
-71 90 96 106 117 127 0
-71 90 96 106 -117 -127 0
-71 90 96 -106 117 -127 0
-71 90 96 -106 -117 127 0
-71 90 -96 106 117 -127 0
-71 90 -96 106 -117 127 0
-71 90 -96 -106 117 127 0
-71 90 -96 -106 -117 -127 0
-71 -90 96 106 117 -127 0
-71 -90 96 106 -117 127 0
-71 -90 96 -106 117 127 0
-71 -90 96 -106 -117 -127 0
-71 -90 -96 106 117 127 0
-71 -90 -96 106 -117 -127 0
-71 -90 -96 -106 117 -127 0
-71 -90 -96 -106 -117 127 0
-58 0
134 -180 0
-134 180 0
83 107 0
-83 -107 0
12 32 50 108 135 0
12 32 50 -108 -135 0
12 32 -50 108 -135 0
12 32 -50 -108 135 0
12 -32 50 108 -135 0
12 -32 50 -108 135 0
12 -32 -50 108 135 0
12 -32 -50 -108 -135 0
-12 32 50 108 -135 0
-12 32 50 -108 135 0
-12 32 -50 108 135 0
-12 32 -50 -108 -135 0
-12 -32 50 108 135 0
-12 -32 50 -108 -135 0
-12 -32 -50 108 -135 0
-12 -32 -50 -108 135 0
24 -181 0
-24 181 0
120 -182 0
-120 182 0
147 152 159 183 -184 0
147 152 159 -183 184 0
147 152 -159 183 184 0
147 152 -159 -183 -184 0
147 -152 159 183 184 0
147 -152 159 -183 -184 0
147 -152 -159 183 -184 0
147 -152 -159 -183 184 0
-147 152 159 183 184 0
-147 152 159 -183 -184 0
-147 152 -159 183 -184 0
-147 152 -159 -183 184 0
-147 -152 159 183 -184 0
-147 -152 159 -183 184 0
-147 -152 -159 183 184 0
-147 -152 -159 -183 -184 0
136 168 183 185 -186 0
136 168 183 -185 186 0
136 168 -183 185 186 0
136 168 -183 -185 -186 0
136 -168 183 185 186 0
136 -168 183 -185 -186 0
136 -168 -183 185 -186 0
136 -168 -183 -185 186 0
-136 168 183 185 186 0
-136 168 183 -185 -186 0
-136 168 -183 185 -186 0
-136 168 -183 -185 186 0
-136 -168 183 185 -186 0
-136 -168 183 -185 186 0
-136 -168 -183 185 186 0
-136 -168 -183 -185 -186 0
150 187 -188 0
150 -187 188 0
-150 187 188 0
-150 -187 -188 0
138 165 182 -189 0
138 165 -182 189 0
138 -165 182 189 0
138 -165 -182 -189 0
-138 165 182 189 0
-138 165 -182 -189 0
-138 -165 182 -189 0
-138 -165 -182 189 0
38 85 146 176 181 -190 0
38 85 146 176 -181 190 0
38 85 146 -176 181 190 0
38 85 146 -176 -181 -190 0
38 85 -146 176 181 190 0
38 85 -146 176 -181 -190 0
38 85 -146 -176 181 -190 0
38 85 -146 -176 -181 190 0
38 -85 146 176 181 190 0
38 -85 146 176 -181 -190 0
38 -85 146 -176 181 -190 0
38 -85 146 -176 -181 190 0
38 -85 -146 176 181 -190 0
38 -85 -146 176 -181 190 0
38 -85 -146 -176 181 190 0
38 -85 -146 -176 -181 -190 0
-38 85 146 176 181 190 0
-38 85 146 176 -181 -190 0
-38 85 146 -176 181 -190 0
-38 85 146 -176 -181 190 0
-38 85 -146 176 181 -190 0
-38 85 -146 176 -181 190 0
-38 85 -146 -176 181 190 0
-38 85 -146 -176 -181 -190 0
-38 -85 146 176 181 -190 0
-38 -85 146 176 -181 190 0
-38 -85 146 -176 181 190 0
-38 -85 146 -176 -181 -190 0
-38 -85 -146 176 181 190 0
-38 -85 -146 176 -181 -190 0
-38 -85 -146 -176 181 -190 0
-38 -85 -146 -176 -181 190 0
61 80 123 -124 0
61 80 -123 124 0
61 -80 123 124 0
61 -80 -123 -124 0
-61 80 123 124 0
-61 80 -123 -124 0
-61 -80 123 -124 0
-61 -80 -123 124 0
-185 0
81 154 191 0
81 -154 -191 0
-81 154 -191 0
-81 -154 191 0
39 75 160 171 192 0
39 75 160 -171 -192 0
39 75 -160 171 -192 0
39 75 -160 -171 192 0
39 -75 160 171 -192 0
39 -75 160 -171 192 0
39 -75 -160 171 192 0
39 -75 -160 -171 -192 0
-39 75 160 171 -192 0
-39 75 160 -171 192 0
-39 75 -160 171 192 0
-39 75 -160 -171 -192 0
-39 -75 160 171 192 0
-39 -75 160 -171 -192 0
-39 -75 -160 171 -192 0
-39 -75 -160 -171 192 0
-132 0
60 172 193 194 0
60 172 -193 -194 0
60 -172 193 -194 0
60 -172 -193 194 0
-60 172 193 -194 0
-60 172 -193 194 0
-60 -172 193 194 0
-60 -172 -193 -194 0
67 0
18 -113 0
-18 113 0
178 -195 0
-178 195 0
100 162 0
-100 -162 0
25 -179 0
-25 179 0
17 45 196 0
17 -45 -196 0
-17 45 -196 0
-17 -45 196 0
-197 0
78 86 -141 0
78 -86 141 0
-78 86 141 0
-78 -86 -141 0
101 128 190 196 0
101 128 -190 -196 0
101 -128 190 -196 0
101 -128 -190 196 0
-101 128 190 -196 0
-101 128 -190 196 0
-101 -128 190 196 0
-101 -128 -190 -196 0
142 191 -195 0
142 -191 195 0
-142 191 195 0
-142 -191 -195 0
169 0
184 0
163 187 0
-163 -187 0
13 102 155 -166 0
13 102 -155 166 0
13 -102 155 166 0
13 -102 -155 -166 0
-13 102 155 166 0
-13 102 -155 -166 0
-13 -102 155 -166 0
-13 -102 -155 166 0
88 188 198 0
88 -188 -198 0
-88 188 -198 0
-88 -188 198 0
7 46 125 153 0
7 46 -125 -153 0
7 -46 125 -153 0
7 -46 -125 153 0
-7 46 125 -153 0
-7 46 -125 153 0
-7 -46 125 153 0
-7 -46 -125 -153 0
14 72 149 151 -180 0
14 72 149 -151 180 0
14 72 -149 151 180 0
14 72 -149 -151 -180 0
14 -72 149 151 180 0
14 -72 149 -151 -180 0
14 -72 -149 151 -180 0
14 -72 -149 -151 180 0
-14 72 149 151 180 0
-14 72 149 -151 -180 0
-14 72 -149 151 -180 0
-14 72 -149 -151 180 0
-14 -72 149 151 -180 0
-14 -72 149 -151 180 0
-14 -72 -149 151 180 0
-14 -72 -149 -151 -180 0
121 -177 0
-121 177 0
9 112 156 186 199 -200 0
9 112 156 186 -199 200 0
9 112 156 -186 199 200 0
9 112 156 -186 -199 -200 0
9 112 -156 186 199 200 0
9 112 -156 186 -199 -200 0
9 112 -156 -186 199 -200 0
9 112 -156 -186 -199 200 0
9 -112 156 186 199 200 0
9 -112 156 186 -199 -200 0
9 -112 156 -186 199 -200 0
9 -112 156 -186 -199 200 0
9 -112 -156 186 199 -200 0
9 -112 -156 186 -199 200 0
9 -112 -156 -186 199 200 0
9 -112 -156 -186 -199 -200 0
-9 112 156 186 199 200 0
-9 112 156 186 -199 -200 0
-9 112 156 -186 199 -200 0
-9 112 156 -186 -199 200 0
-9 112 -156 186 199 -200 0
-9 112 -156 186 -199 200 0
-9 112 -156 -186 199 200 0
-9 112 -156 -186 -199 -200 0
-9 -112 156 186 199 -200 0
-9 -112 156 186 -199 200 0
-9 -112 156 -186 199 200 0
-9 -112 156 -186 -199 -200 0
-9 -112 -156 186 199 200 0
-9 -112 -156 186 -199 -200 0
-9 -112 -156 -186 199 -200 0
-9 -112 -156 -186 -199 200 0
33 0
164 199 0
-164 -199 0
170 189 -192 0
170 -189 192 0
-170 189 192 0
-170 -189 -192 0
193 -198 0
-193 198 0
-197 0
40 143 175 -194 0
40 143 -175 194 0
40 -143 175 194 0
40 -143 -175 -194 0
-40 143 175 194 0
-40 143 -175 -194 0
-40 -143 175 -194 0
-40 -143 -175 194 0
26 34 129 131 139 161 173 200 0
26 34 129 131 139 161 -173 -200 0
26 34 129 131 139 -161 173 -200 0
26 34 129 131 139 -161 -173 200 0
26 34 129 131 -139 161 173 -200 0
26 34 129 131 -139 161 -173 200 0
26 34 129 131 -139 -161 173 200 0
26 34 129 131 -139 -161 -173 -200 0
26 34 129 -131 139 161 173 -200 0
26 34 129 -131 139 161 -173 200 0
26 34 129 -131 139 -161 173 200 0
26 34 129 -131 139 -161 -173 -200 0
26 34 129 -131 -139 161 173 200 0
26 34 129 -131 -139 161 -173 -200 0
26 34 129 -131 -139 -161 173 -200 0
26 34 129 -131 -139 -161 -173 200 0
26 34 -129 131 139 161 173 -200 0
26 34 -129 131 139 161 -173 200 0
26 34 -129 131 139 -161 173 200 0
26 34 -129 131 139 -161 -173 -200 0
26 34 -129 131 -139 161 173 200 0
26 34 -129 131 -139 161 -173 -200 0
26 34 -129 131 -139 -161 173 -200 0
26 34 -129 131 -139 -161 -173 200 0
26 34 -129 -131 139 161 173 200 0
26 34 -129 -131 139 161 -173 -200 0
26 34 -129 -131 139 -161 173 -200 0
26 34 -129 -131 139 -161 -173 200 0
26 34 -129 -131 -139 161 173 -200 0
26 34 -129 -131 -139 161 -173 200 0
26 34 -129 -131 -139 -161 173 200 0
26 34 -129 -131 -139 -161 -173 -200 0
26 -34 129 131 139 161 173 -200 0
26 -34 129 131 139 161 -173 200 0
26 -34 129 131 139 -161 173 200 0
26 -34 129 131 139 -161 -173 -200 0
26 -34 129 131 -139 161 173 200 0
26 -34 129 131 -139 161 -173 -200 0
26 -34 129 131 -139 -161 173 -200 0
26 -34 129 131 -139 -161 -173 200 0
26 -34 129 -131 139 161 173 200 0
26 -34 129 -131 139 161 -173 -200 0
26 -34 129 -131 139 -161 173 -200 0
26 -34 129 -131 139 -161 -173 200 0
26 -34 129 -131 -139 161 173 -200 0
26 -34 129 -131 -139 161 -173 200 0
26 -34 129 -131 -139 -161 173 200 0
26 -34 129 -131 -139 -161 -173 -200 0
26 -34 -129 131 139 161 173 200 0
26 -34 -129 131 139 161 -173 -200 0
26 -34 -129 131 139 -161 173 -200 0
26 -34 -129 131 139 -161 -173 200 0
26 -34 -129 131 -139 161 173 -200 0
26 -34 -129 131 -139 161 -173 200 0
26 -34 -129 131 -139 -161 173 200 0
26 -34 -129 131 -139 -161 -173 -200 0
26 -34 -129 -131 139 161 173 -200 0
26 -34 -129 -131 139 161 -173 200 0
26 -34 -129 -131 139 -161 173 200 0
26 -34 -129 -131 139 -161 -173 -200 0
26 -34 -129 -131 -139 161 173 200 0
26 -34 -129 -131 -139 161 -173 -200 0
26 -34 -129 -131 -139 -161 173 -200 0
26 -34 -129 -131 -139 -161 -173 200 0
-26 34 129 131 139 161 173 -200 0
-26 34 129 131 139 161 -173 200 0
-26 34 129 131 139 -161 173 200 0
-26 34 129 131 139 -161 -173 -200 0
-26 34 129 131 -139 161 173 200 0
-26 34 129 131 -139 161 -173 -200 0
-26 34 129 131 -139 -161 173 -200 0
-26 34 129 131 -139 -161 -173 200 0
-26 34 129 -131 139 161 173 200 0
-26 34 129 -131 139 161 -173 -200 0
-26 34 129 -131 139 -161 173 -200 0
-26 34 129 -131 139 -161 -173 200 0
-26 34 129 -131 -139 161 173 -200 0
-26 34 129 -131 -139 161 -173 200 0
-26 34 129 -131 -139 -161 173 200 0
-26 34 129 -131 -139 -161 -173 -200 0
-26 34 -129 131 139 161 173 200 0
-26 34 -129 131 139 161 -173 -200 0
-26 34 -129 131 139 -161 173 -200 0
-26 34 -129 131 139 -161 -173 200 0
-26 34 -129 131 -139 161 173 -200 0
-26 34 -129 131 -139 161 -173 200 0
-26 34 -129 131 -139 -161 173 200 0
-26 34 -129 131 -139 -161 -173 -200 0
-26 34 -129 -131 139 161 173 -200 0
-26 34 -129 -131 139 161 -173 200 0
-26 34 -129 -131 139 -161 173 200 0
-26 34 -129 -131 139 -161 -173 -200 0
-26 34 -129 -131 -139 161 173 200 0
-26 34 -129 -131 -139 161 -173 -200 0
-26 34 -129 -131 -139 -161 173 -200 0
-26 34 -129 -131 -139 -161 -173 200 0
-26 -34 129 131 139 161 173 200 0
-26 -34 129 131 139 161 -173 -200 0
-26 -34 129 131 139 -161 173 -200 0
-26 -34 129 131 139 -161 -173 200 0
-26 -34 129 131 -139 161 173 -200 0
-26 -34 129 131 -139 161 -173 200 0
-26 -34 129 131 -139 -161 173 200 0
-26 -34 129 131 -139 -161 -173 -200 0
-26 -34 129 -131 139 161 173 -200 0
-26 -34 129 -131 139 161 -173 200 0
-26 -34 129 -131 139 -161 173 200 0
-26 -34 129 -131 139 -161 -173 -200 0
-26 -34 129 -131 -139 161 173 200 0
-26 -34 129 -131 -139 161 -173 -200 0
-26 -34 129 -131 -139 -161 173 -200 0
-26 -34 129 -131 -139 -161 -173 200 0
-26 -34 -129 131 139 161 173 -200 0
-26 -34 -129 131 139 161 -173 200 0
-26 -34 -129 131 139 -161 173 200 0
-26 -34 -129 131 139 -161 -173 -200 0
-26 -34 -129 131 -139 161 173 200 0
-26 -34 -129 131 -139 161 -173 -200 0
-26 -34 -129 131 -139 -161 173 -200 0
-26 -34 -129 131 -139 -161 -173 200 0
-26 -34 -129 -131 139 161 173 200 0
-26 -34 -129 -131 139 161 -173 -200 0
-26 -34 -129 -131 139 -161 173 -200 0
-26 -34 -129 -131 139 -161 -173 200 0
-26 -34 -129 -131 -139 161 173 -200 0
-26 -34 -129 -131 -139 161 -173 200 0
-26 -34 -129 -131 -139 -161 173 200 0
-26 -34 -129 -131 -139 -161 -173 -200 0
